80 5
1680
240
1920
2400
240
480
960
1920
1200
2160
1680
1200
1200
1200
2160
960
2400
480
240
1200
960
1440
720
480
720
1200
1680
1920
240
1440
720
1440
1680
240
1920
2160
960
1440
240
1200
1680
1920
1920
960
720
960
720
720
1920
720
2400
960
480
480
720
1440
1440
240
1680
720
1680
1680
1680
1920
1440
720
960
1200
480
1440
1680
1440
960
1680
960
240
1920
720
1680
720
31979
12799
16969
18979
15994
